
n_res = 8;
rcap = [45, 44, 43, 49, 1648, 1789, 1700, 1693];
rtype = [1, 1, 1, 1, 2, 2, 2, 2];
n_tasks = 100;
modes =  [{1, 2, 3, 4, 5, 6}, {7, 8, 9, 10, 11, 12}, {13, 14, 15, 16, 17, 18}, {19, 20, 21, 22, 23, 24}, {25, 26, 27, 28, 29, 30}, {31, 32, 33, 34, 35, 36}, {37, 38, 39, 40, 41, 42}, {43, 44, 45, 46, 47, 48}, {49, 50, 51, 52, 53, 54}, {55, 56, 57, 58, 59, 60}, {61, 62, 63, 64, 65, 66}, {67, 68, 69, 70, 71, 72}, {73, 74, 75, 76, 77, 78}, {79, 80, 81, 82, 83, 84}, {85, 86, 87, 88, 89, 90}, {91, 92, 93, 94, 95, 96}, {97, 98, 99, 100, 101, 102}, {103, 104, 105, 106, 107, 108}, {109, 110, 111, 112, 113, 114}, {115, 116, 117, 118, 119, 120}, {121, 122, 123, 124, 125, 126}, {127, 128, 129, 130, 131, 132}, {133, 134, 135, 136, 137, 138}, {139, 140, 141, 142, 143, 144}, {145, 146, 147, 148, 149, 150}, {151, 152, 153, 154, 155, 156}, {157, 158, 159, 160, 161, 162}, {163, 164, 165, 166, 167, 168}, {169, 170, 171, 172, 173, 174}, {175, 176, 177, 178, 179, 180}, {181, 182, 183, 184, 185, 186}, {187, 188, 189, 190, 191, 192}, {193, 194, 195, 196, 197, 198}, {199, 200, 201, 202, 203, 204}, {205, 206, 207, 208, 209, 210}, {211, 212, 213, 214, 215, 216}, {217, 218, 219, 220, 221, 222}, {223, 224, 225, 226, 227, 228}, {229, 230, 231, 232, 233, 234}, {235, 236, 237, 238, 239, 240}, {241, 242, 243, 244, 245, 246}, {247, 248, 249, 250, 251, 252}, {253, 254, 255, 256, 257, 258}, {259, 260, 261, 262, 263, 264}, {265, 266, 267, 268, 269, 270}, {271, 272, 273, 274, 275, 276}, {277, 278, 279, 280, 281, 282}, {283, 284, 285, 286, 287, 288}, {289, 290, 291, 292, 293, 294}, {295, 296, 297, 298, 299, 300}, {301, 302, 303, 304, 305, 306}, {307, 308, 309, 310, 311, 312}, {313, 314, 315, 316, 317, 318}, {319, 320, 321, 322, 323, 324}, {325, 326, 327, 328, 329, 330}, {331, 332, 333, 334, 335, 336}, {337, 338, 339, 340, 341, 342}, {343, 344, 345, 346, 347, 348}, {349, 350, 351, 352, 353, 354}, {355, 356, 357, 358, 359, 360}, {361, 362, 363, 364, 365, 366}, {367, 368, 369, 370, 371, 372}, {373, 374, 375, 376, 377, 378}, {379, 380, 381, 382, 383, 384}, {385, 386, 387, 388, 389, 390}, {391, 392, 393, 394, 395, 396}, {397, 398, 399, 400, 401, 402}, {403, 404, 405, 406, 407, 408}, {409, 410, 411, 412, 413, 414}, {415, 416, 417, 418, 419, 420}, {421, 422, 423, 424, 425, 426}, {427, 428, 429, 430, 431, 432}, {433, 434, 435, 436, 437, 438}, {439, 440, 441, 442, 443, 444}, {445, 446, 447, 448, 449, 450}, {451, 452, 453, 454, 455, 456}, {457, 458, 459, 460, 461, 462}, {463, 464, 465, 466, 467, 468}, {469, 470, 471, 472, 473, 474}, {475, 476, 477, 478, 479, 480}, {481, 482, 483, 484, 485, 486}, {487, 488, 489, 490, 491, 492}, {493, 494, 495, 496, 497, 498}, {499, 500, 501, 502, 503, 504}, {505, 506, 507, 508, 509, 510}, {511, 512, 513, 514, 515, 516}, {517, 518, 519, 520, 521, 522}, {523, 524, 525, 526, 527, 528}, {529, 530, 531, 532, 533, 534}, {535, 536, 537, 538, 539, 540}, {541, 542, 543, 544, 545, 546}, {547, 548, 549, 550, 551, 552}, {553, 554, 555, 556, 557, 558}, {559, 560, 561, 562, 563, 564}, {565, 566, 567, 568, 569, 570}, {571, 572, 573, 574, 575, 576}, {577, 578, 579, 580, 581, 582}, {583, 584, 585, 586, 587, 588}, {589, 590, 591, 592, 593, 594}, {595, 596, 597, 598, 599, 600}];
succ =  [{100, 99, 70, 68, 66, 65, 59, 57, 53, 50, 49, 46, 38, 10}, {100, 71, 69, 56, 55, 54, 53, 45, 44, 42, 27, 18}, {100, 98, 96, 93, 91, 90, 89, 87, 68, 66, 65, 64, 57, 52, 51, 50, 48, 44, 40, 33}, {100, 98, 94, 90, 89, 86, 85, 68, 65, 64, 63, 62, 56, 54, 44, 43, 32, 27}, {99, 96, 66, 65, 58, 52, 46, 30, 17}, {97, 93, 67, 65, 58, 57, 52, 38, 35, 26, 25}, {99, 96, 93, 68, 67, 66, 65, 64, 56, 55, 50, 49, 41, 38, 26}, {100, 99, 97, 96, 92, 66, 64, 57, 56, 55, 54, 52, 42, 40, 26}, {99, 98, 96, 95, 94, 93, 90, 89, 80, 79, 69, 65, 63, 60, 49, 44, 33}, {98, 94, 89, 86, 82, 71, 67, 64, 56, 55, 44, 40, 31}, {99, 93, 92, 90, 88, 87, 84, 82, 80, 79, 57, 56, 54, 52, 51, 40, 37}, {98, 97, 95, 91, 90, 71, 69, 56, 55, 21}, {97, 96, 94, 93, 92, 90, 87, 84, 82, 81, 79, 70, 69, 67, 65, 62, 54, 53, 51, 37}, {99, 98, 96, 95, 91, 90, 87, 86, 79, 69, 67, 62, 58, 56, 55, 54, 48, 42}, {100, 97, 89, 80, 64, 61, 55, 52, 50, 48, 40, 34}, {95, 94, 93, 92, 91, 90, 89, 88, 85, 84, 83, 77, 76, 68, 62, 57, 56, 46, 45}, {100, 98, 97, 93, 91, 89, 88, 87, 86, 83, 80, 79, 68, 64, 61, 60, 56, 55, 40}, {97, 96, 93, 89, 84, 77, 75, 67, 65, 64, 63, 62, 61, 60, 57, 52, 34}, {100, 96, 95, 92, 89, 87, 86, 85, 76, 65, 62, 56, 55, 54, 32}, {98, 96, 92, 91, 83, 82, 79, 74, 70, 69, 67, 62, 60, 56, 52, 51}, {96, 93, 89, 88, 85, 84, 82, 81, 75, 66, 65, 61, 60, 52, 50}, {100, 96, 93, 92, 91, 89, 88, 85, 84, 83, 82, 79, 78, 74, 72, 70, 66, 64, 60, 54}, {97, 96, 94, 92, 90, 89, 84, 82, 81, 79, 78, 75, 74, 72, 70, 66, 64, 62, 60}, {96, 90, 88, 87, 86, 85, 82, 79, 78, 74, 69, 67, 65, 63, 62, 61, 54}, {99, 95, 92, 90, 88, 83, 80, 76, 60, 33}, {98, 94, 91, 90, 89, 87, 85, 83, 82, 81, 80, 79, 78, 75, 74, 63, 62, 61, 60}, {99, 97, 96, 95, 93, 91, 88, 83, 78, 66, 60, 51, 50}, {97, 93, 92, 90, 89, 88, 85, 84, 82, 80, 77, 76, 61, 57, 55, 54}, {95, 94, 92, 87, 85, 84, 82, 81, 79, 74, 68, 64, 63, 62, 51}, {90, 89, 88, 87, 86, 85, 84, 82, 79, 77, 74, 62, 60, 56, 54}, {93, 92, 88, 87, 84, 83, 79, 78, 60, 51}, {99, 91, 84, 82, 81, 80, 79, 78, 77, 74, 72, 60}, {86, 85, 84, 82, 81, 77, 74, 55, 54}, {98, 94, 90, 87, 86, 83, 82, 79, 78, 76, 73, 72}, {96, 95, 91, 89, 88, 86, 85, 84, 76, 75, 74, 72}, {97, 89, 88, 86, 84, 79, 76, 74, 73, 72, 66}, {91, 86, 83, 77, 74, 63, 60, 55}, {92, 87, 85, 84, 81, 80, 76, 75, 74, 73, 72}, {96, 95, 92, 81, 79, 77, 76, 74, 73, 68}, {95, 85, 81, 77, 75, 74, 72, 63, 62}, {87, 85, 84, 83, 82, 77, 76, 72, 54}, {93, 89, 85, 84, 83, 80, 75, 74, 61}, {87, 83, 76, 75, 74, 60, 55}, {97, 92, 88, 81, 77, 74, 73, 61}, {97, 82, 80, 79, 78, 75, 73, 72}, {86, 82, 74, 72, 60, 54}, {100, 87, 78, 75, 64, 60}, {88, 81, 78, 77, 74, 60}, {91, 88, 87, 85, 62}, {79, 77, 76, 74}, {77, 75, 61}, {94, 86, 78}, {78, 77, 72}, {75, 73}, {78, 72}, {81, 72}, {74, 72}, {74, 73}, {90, 77}, {73}, {72}, {73}, {76}, {76}, {83}, {80}, {80}, {75}, {76}, {77}, {81}, {}, {}, {}, {}, {}, {}, {}, {}, {}, {}, {}, {}, {}, {}, {}, {}, {}, {}, {}, {}, {}, {}, {}, {}, {}, {}, {}, {}, {}];
n_opt = 600;
dur = [8, 14, 17, 18, 23, 26, 1, 11, 17, 28, 29, 30, 10, 13, 14, 15, 23, 27, 1, 2, 3, 4, 8, 11, 5, 11, 15, 19, 21, 30, 3, 6, 17, 23, 28, 30, 14, 15, 17, 19, 27, 28, 4, 6, 13, 14, 19, 23, 3, 14, 15, 24, 25, 28, 4, 6, 9, 21, 25, 26, 8, 12, 15, 18, 23, 24, 5, 10, 12, 14, 16, 20, 14, 15, 16, 20, 21, 28, 3, 19, 22, 23, 24, 30, 6, 12, 13, 14, 24, 26, 2, 4, 22, 23, 24, 29, 3, 5, 9, 10, 16, 19, 5, 6, 7, 11, 13, 22, 2, 5, 20, 25, 26, 29, 3, 11, 19, 23, 24, 26, 11, 15, 16, 17, 25, 30, 15, 16, 17, 18, 20, 25, 3, 4, 12, 13, 14, 17, 1, 2, 9, 15, 17, 23, 1, 6, 7, 12, 19, 23, 6, 7, 11, 18, 22, 28, 7, 14, 17, 18, 22, 28, 4, 5, 18, 21, 28, 29, 2, 12, 14, 22, 23, 28, 1, 6, 15, 21, 25, 26, 4, 7, 8, 10, 25, 28, 2, 3, 8, 10, 25, 26, 3, 7, 23, 24, 25, 26, 6, 11, 12, 14, 26, 28, 9, 12, 15, 24, 25, 28, 3, 10, 12, 13, 16, 25, 2, 4, 8, 9, 20, 24, 3, 10, 16, 19, 26, 28, 11, 14, 17, 21, 29, 30, 4, 7, 10, 13, 21, 22, 11, 12, 13, 14, 15, 20, 12, 17, 20, 26, 27, 28, 6, 8, 9, 10, 27, 28, 4, 5, 13, 14, 22, 25, 4, 12, 15, 16, 23, 28, 12, 14, 18, 25, 27, 28, 6, 11, 15, 19, 23, 28, 8, 9, 20, 21, 22, 25, 1, 2, 4, 10, 16, 19, 6, 7, 8, 9, 16, 19, 2, 8, 9, 18, 22, 30, 2, 5, 8, 9, 19, 21, 7, 8, 12, 20, 21, 26, 1, 5, 12, 13, 15, 25, 4, 9, 13, 22, 27, 29, 6, 12, 13, 22, 24, 27, 9, 11, 19, 22, 24, 25, 1, 20, 22, 23, 27, 30, 2, 3, 12, 16, 24, 26, 2, 3, 4, 7, 8, 25, 11, 22, 23, 28, 29, 30, 4, 6, 14, 15, 20, 29, 3, 5, 10, 22, 25, 26, 11, 13, 14, 17, 19, 24, 2, 3, 4, 10, 13, 29, 3, 5, 10, 20, 27, 28, 1, 5, 10, 12, 22, 30, 1, 11, 14, 16, 17, 20, 5, 7, 17, 18, 23, 30, 2, 10, 13, 17, 25, 26, 2, 5, 7, 8, 18, 19, 6, 8, 9, 13, 24, 29, 9, 18, 20, 23, 28, 30, 9, 19, 20, 21, 26, 29, 5, 13, 14, 15, 18, 22, 1, 4, 5, 20, 21, 23, 7, 22, 23, 25, 28, 29, 1, 2, 9, 11, 12, 26, 8, 10, 17, 23, 26, 27, 2, 10, 11, 13, 15, 23, 1, 2, 14, 17, 22, 25, 3, 6, 16, 18, 24, 26, 4, 5, 7, 13, 18, 25, 11, 16, 21, 22, 23, 25, 3, 17, 21, 22, 27, 30, 4, 6, 15, 16, 26, 27, 6, 7, 8, 9, 23, 24, 7, 8, 11, 12, 18, 25, 4, 5, 10, 11, 25, 30, 7, 8, 14, 17, 21, 29, 7, 11, 16, 22, 27, 29, 7, 8, 11, 27, 28, 29, 4, 11, 12, 18, 20, 23, 3, 4, 10, 12, 14, 20, 1, 3, 8, 13, 20, 22, 1, 5, 7, 8, 21, 23, 3, 9, 10, 12, 20, 27, 9, 15, 20, 25, 26, 29, 3, 13, 20, 22, 27, 28, 2, 3, 6, 9, 21, 22];
rreq = [|4, 4, 4, 4, 4, 4, 1, 1, 1, 1, 1, 1, 4, 3, 3, 2, 2, 1, 3, 2, 2, 1, 1, 1, 4, 3, 3, 2, 2, 2, 2, 2, 2, 2, 2, 2, 3, 3, 3, 3, 3, 3, 1, 1, 1, 1, 1, 1, 3, 2, 2, 2, 2, 2, 4, 4, 3, 3, 2, 1, 4, 3, 3, 3, 3, 3, 4, 4, 4, 4, 3, 3, 3, 3, 2, 2, 1, 1, 3, 2, 2, 2, 1, 1, 4, 3, 3, 2, 1, 1, 5, 4, 3, 2, 2, 1, 3, 3, 3, 3, 2, 2, 3, 3, 3, 3, 3, 3, 3, 3, 3, 3, 3, 3, 3, 3, 3, 3, 3, 3, 3, 3, 3, 3, 3, 3, 4, 3, 3, 3, 2, 2, 4, 3, 3, 2, 1, 1, 3, 3, 2, 2, 2, 1, 2, 2, 2, 2, 2, 2, 4, 3, 3, 2, 2, 2, 4, 4, 3, 3, 2, 2, 2, 1, 1, 1, 1, 1, 5, 4, 4, 4, 3, 3, 3, 3, 3, 3, 2, 2, 4, 4, 4, 4, 4, 4, 4, 4, 3, 2, 1, 1, 1, 1, 1, 1, 1, 1, 2, 2, 2, 1, 1, 1, 4, 3, 2, 2, 1, 1, 5, 4, 3, 2, 2, 1, 5, 4, 4, 3, 2, 2, 5, 4, 4, 3, 3, 3, 4, 3, 3, 3, 3, 3, 2, 2, 2, 2, 2, 2, 1, 1, 1, 1, 1, 1, 3, 2, 2, 2, 1, 1, 3, 3, 3, 3, 3, 3, 5, 4, 4, 4, 4, 4, 4, 3, 3, 2, 2, 2, 2, 2, 2, 2, 1, 1, 2, 2, 2, 2, 1, 1, 5, 5, 5, 5, 5, 5, 4, 4, 4, 4, 4, 4, 2, 2, 2, 2, 1, 1, 4, 4, 4, 3, 3, 3, 4, 4, 4, 3, 3, 3, 4, 4, 3, 3, 2, 1, 3, 3, 3, 3, 3, 3, 2, 2, 2, 2, 2, 2, 4, 3, 3, 3, 3, 3, 3, 3, 3, 3, 3, 3, 3, 3, 3, 2, 2, 2, 5, 4, 3, 3, 2, 1, 5, 5, 5, 5, 5, 5, 1, 1, 1, 1, 1, 1, 3, 3, 3, 3, 3, 3, 4, 4, 4, 3, 2, 2, 3, 3, 3, 3, 3, 3, 2, 1, 1, 1, 1, 1, 3, 3, 3, 3, 2, 2, 5, 4, 3, 2, 1, 1, 5, 4, 4, 4, 4, 4, 4, 3, 3, 3, 3, 3, 5, 5, 5, 5, 5, 5, 4, 4, 4, 3, 3, 3, 4, 4, 4, 4, 4, 4, 4, 3, 3, 3, 2, 1, 4, 4, 3, 3, 2, 2, 4, 3, 3, 2, 2, 2, 3, 2, 2, 2, 1, 1, 5, 4, 3, 3, 2, 2, 3, 3, 3, 3, 2, 2, 4, 4, 3, 3, 1, 1, 3, 3, 3, 3, 3, 3, 3, 3, 2, 2, 2, 1, 4, 4, 4, 3, 3, 3, 4, 4, 4, 4, 4, 4, 4, 4, 4, 4, 4, 4, 2, 2, 2, 1, 1, 1, 4, 4, 3, 3, 3, 2, 5, 5, 5, 5, 5, 5, 2, 1, 1, 1, 1, 1, 5, 4, 3, 3, 1, 1, 4, 3, 2, 2, 1, 1, 3, 3, 3, 2, 2, 1, 2, 2, 2, 2, 2, 2, 4, 4, 4, 4, 4, 4, 4, 3, 3, 2, 2, 2, 2, 1, 1, 1, 1, 1, 4, 3, 3, 2, 1, 1, 3, 2, 2, 2, 2, 2, 4, 4, 4, 4, 3, 3, 3, 3, 3, 3, 3, 3, 2, 2, 2, 1, 1, 1
 |2, 2, 2, 2, 2, 2, 4, 4, 4, 3, 2, 2, 3, 3, 3, 3, 3, 3, 4, 3, 3, 2, 2, 1, 4, 3, 3, 3, 2, 2, 5, 4, 4, 3, 3, 2, 4, 3, 3, 3, 2, 1, 2, 2, 2, 1, 1, 1, 4, 4, 4, 4, 4, 4, 5, 4, 4, 4, 3, 3, 3, 2, 2, 2, 1, 1, 5, 4, 4, 3, 3, 3, 3, 3, 3, 3, 3, 3, 2, 2, 2, 2, 2, 2, 2, 2, 2, 2, 2, 2, 4, 4, 4, 3, 2, 2, 2, 2, 2, 2, 2, 2, 2, 2, 2, 2, 2, 2, 3, 2, 2, 2, 2, 2, 2, 2, 2, 2, 2, 2, 3, 3, 3, 3, 3, 3, 3, 3, 2, 2, 2, 1, 3, 2, 2, 2, 1, 1, 1, 1, 1, 1, 1, 1, 2, 1, 1, 1, 1, 1, 5, 5, 5, 5, 5, 5, 4, 3, 2, 2, 1, 1, 5, 4, 4, 3, 2, 2, 4, 3, 2, 2, 1, 1, 3, 3, 2, 2, 2, 1, 3, 2, 2, 2, 1, 1, 4, 3, 3, 2, 2, 1, 4, 4, 4, 3, 2, 2, 4, 4, 4, 4, 4, 4, 3, 2, 2, 2, 2, 2, 3, 3, 3, 3, 3, 3, 3, 3, 3, 3, 3, 3, 4, 4, 4, 4, 4, 4, 3, 2, 2, 2, 2, 2, 2, 1, 1, 1, 1, 1, 4, 3, 3, 3, 3, 3, 4, 4, 4, 4, 4, 4, 5, 4, 3, 3, 1, 1, 5, 4, 4, 3, 3, 3, 4, 4, 4, 4, 4, 4, 4, 4, 3, 3, 1, 1, 4, 3, 3, 3, 2, 2, 4, 4, 3, 2, 2, 1, 3, 3, 3, 2, 2, 1, 2, 2, 2, 2, 2, 2, 5, 5, 5, 5, 5, 5, 5, 4, 3, 2, 1, 1, 5, 4, 4, 3, 3, 3, 5, 3, 3, 3, 2, 1, 1, 1, 1, 1, 1, 1, 4, 4, 4, 4, 4, 4, 3, 3, 3, 3, 2, 2, 5, 4, 3, 2, 2, 1, 3, 3, 3, 3, 3, 3, 2, 2, 2, 1, 1, 1, 5, 5, 5, 5, 5, 5, 5, 4, 3, 3, 3, 2, 3, 2, 2, 1, 1, 1, 2, 2, 2, 1, 1, 1, 1, 1, 1, 1, 1, 1, 4, 4, 4, 4, 4, 4, 1, 1, 1, 1, 1, 1, 4, 4, 4, 4, 4, 4, 4, 3, 3, 3, 3, 3, 2, 2, 2, 2, 2, 2, 5, 5, 5, 5, 5, 5, 2, 2, 2, 1, 1, 1, 4, 4, 4, 3, 3, 3, 3, 3, 3, 2, 2, 2, 2, 2, 2, 2, 1, 1, 4, 3, 3, 3, 3, 3, 2, 2, 2, 2, 2, 2, 2, 2, 2, 1, 1, 1, 3, 2, 2, 2, 1, 1, 1, 1, 1, 1, 1, 1, 3, 2, 2, 2, 2, 2, 5, 4, 4, 4, 4, 4, 4, 4, 4, 3, 3, 3, 5, 4, 4, 4, 3, 3, 5, 5, 5, 5, 5, 5, 5, 4, 4, 4, 3, 3, 5, 4, 4, 3, 2, 2, 2, 2, 2, 2, 2, 2, 4, 3, 3, 3, 3, 3, 5, 4, 4, 3, 3, 3, 4, 3, 3, 3, 3, 3, 4, 4, 3, 3, 3, 2, 4, 4, 3, 2, 2, 1, 5, 4, 3, 2, 1, 1, 5, 4, 4, 3, 3, 3, 5, 5, 5, 5, 5, 5, 2, 2, 2, 2, 2, 2, 4, 3, 3, 3, 3, 3, 4, 3, 3, 2, 2, 1, 4, 3, 3, 3, 3, 3
 |4, 4, 4, 4, 4, 4, 5, 4, 3, 3, 2, 1, 3, 2, 2, 2, 2, 2, 2, 1, 1, 1, 1, 1, 4, 4, 4, 4, 4, 4, 2, 1, 1, 1, 1, 1, 3, 3, 3, 2, 2, 1, 2, 2, 2, 2, 2, 2, 3, 2, 2, 1, 1, 1, 3, 3, 3, 3, 3, 3, 3, 2, 2, 1, 1, 1, 4, 4, 4, 4, 4, 4, 4, 3, 3, 2, 2, 1, 3, 2, 2, 2, 2, 2, 4, 4, 3, 3, 1, 1, 2, 2, 2, 2, 1, 1, 2, 2, 2, 2, 2, 2, 2, 2, 2, 2, 2, 2, 3, 3, 3, 3, 3, 3, 4, 4, 4, 3, 3, 3, 4, 3, 3, 2, 2, 2, 3, 3, 3, 2, 2, 1, 5, 4, 4, 3, 2, 2, 5, 4, 4, 4, 4, 4, 4, 4, 4, 4, 4, 4, 4, 3, 3, 3, 3, 3, 5, 4, 4, 4, 4, 4, 2, 2, 2, 1, 1, 1, 5, 4, 3, 3, 1, 1, 4, 3, 2, 2, 2, 1, 3, 3, 3, 3, 2, 2, 3, 3, 3, 3, 3, 3, 4, 4, 3, 3, 1, 1, 4, 4, 3, 3, 3, 2, 3, 3, 3, 2, 2, 1, 2, 2, 2, 1, 1, 1, 3, 3, 3, 3, 3, 3, 3, 3, 3, 2, 2, 2, 2, 2, 2, 2, 2, 2, 2, 2, 2, 2, 2, 2, 4, 4, 4, 4, 4, 4, 4, 4, 4, 4, 3, 3, 5, 4, 4, 4, 4, 4, 5, 4, 4, 4, 4, 4, 2, 1, 1, 1, 1, 1, 4, 4, 3, 3, 3, 2, 3, 2, 2, 2, 1, 1, 3, 3, 2, 2, 1, 1, 5, 4, 4, 4, 4, 4, 1, 1, 1, 1, 1, 1, 1, 1, 1, 1, 1, 1, 5, 4, 4, 3, 2, 2, 4, 4, 4, 4, 4, 4, 2, 2, 2, 2, 2, 2, 1, 1, 1, 1, 1, 1, 5, 4, 4, 4, 4, 4, 3, 3, 2, 2, 1, 1, 3, 2, 2, 2, 1, 1, 4, 3, 3, 3, 3, 3, 3, 3, 3, 2, 2, 2, 4, 4, 4, 4, 4, 4, 5, 4, 4, 4, 3, 3, 4, 4, 4, 4, 3, 3, 3, 3, 3, 3, 2, 2, 4, 3, 3, 3, 2, 2, 2, 1, 1, 1, 1, 1, 3, 2, 2, 2, 2, 2, 2, 1, 1, 1, 1, 1, 3, 3, 3, 2, 2, 2, 2, 2, 2, 2, 2, 2, 3, 2, 2, 2, 2, 2, 3, 2, 2, 2, 2, 2, 3, 3, 3, 2, 2, 2, 4, 3, 2, 2, 1, 1, 5, 4, 4, 3, 2, 2, 3, 2, 2, 1, 1, 1, 5, 4, 4, 3, 3, 3, 1, 1, 1, 1, 1, 1, 3, 2, 2, 1, 1, 1, 3, 2, 2, 1, 1, 1, 3, 3, 3, 3, 3, 3, 4, 4, 4, 4, 4, 4, 4, 4, 4, 4, 4, 4, 3, 3, 3, 2, 2, 2, 5, 4, 3, 2, 1, 1, 5, 3, 3, 3, 2, 1, 2, 2, 2, 2, 2, 2, 4, 4, 4, 4, 4, 4, 4, 4, 4, 4, 4, 4, 3, 2, 2, 1, 1, 1, 5, 4, 4, 3, 2, 2, 1, 1, 1, 1, 1, 1, 3, 2, 2, 1, 1, 1, 3, 3, 3, 2, 2, 1, 4, 3, 3, 2, 1, 1, 5, 4, 3, 3, 2, 2, 2, 2, 2, 2, 2, 2, 4, 4, 4, 3, 2, 2, 3, 3, 3, 3, 3, 3, 3, 3, 2, 2, 2, 1
 |5, 4, 4, 3, 2, 2, 3, 2, 2, 2, 2, 2, 1, 1, 1, 1, 1, 1, 5, 4, 4, 4, 3, 3, 2, 2, 2, 2, 1, 1, 5, 4, 3, 3, 2, 1, 5, 3, 3, 3, 2, 1, 5, 4, 4, 3, 3, 3, 4, 3, 3, 2, 2, 1, 5, 4, 4, 3, 3, 3, 4, 4, 3, 3, 2, 1, 4, 4, 4, 4, 4, 4, 4, 4, 4, 4, 4, 4, 3, 3, 3, 3, 3, 3, 5, 4, 4, 3, 2, 2, 4, 3, 3, 3, 3, 3, 2, 2, 2, 1, 1, 1, 1, 1, 1, 1, 1, 1, 5, 4, 4, 4, 4, 4, 1, 1, 1, 1, 1, 1, 5, 4, 4, 3, 3, 3, 4, 3, 2, 2, 2, 1, 4, 3, 3, 3, 3, 3, 3, 3, 3, 2, 2, 1, 3, 2, 2, 2, 2, 2, 2, 2, 2, 1, 1, 1, 2, 1, 1, 1, 1, 1, 2, 2, 2, 2, 2, 2, 2, 2, 2, 2, 2, 2, 5, 3, 3, 2, 2, 1, 2, 2, 2, 2, 2, 2, 2, 2, 2, 2, 2, 2, 4, 4, 4, 4, 4, 4, 2, 2, 2, 2, 2, 2, 2, 2, 2, 2, 2, 2, 5, 4, 4, 4, 4, 4, 3, 3, 3, 2, 2, 1, 1, 1, 1, 1, 1, 1, 4, 3, 3, 3, 2, 2, 2, 1, 1, 1, 1, 1, 4, 4, 3, 3, 1, 1, 5, 4, 4, 3, 3, 3, 3, 3, 3, 2, 2, 2, 5, 5, 5, 5, 5, 5, 2, 2, 2, 2, 2, 2, 4, 3, 3, 2, 2, 1, 4, 4, 4, 4, 3, 3, 5, 5, 5, 5, 5, 5, 4, 4, 4, 4, 4, 4, 2, 2, 2, 2, 2, 2, 4, 3, 3, 3, 2, 2, 4, 4, 4, 4, 3, 3, 5, 3, 3, 3, 2, 1, 5, 4, 3, 3, 2, 2, 5, 4, 4, 3, 3, 3, 1, 1, 1, 1, 1, 1, 4, 3, 3, 3, 3, 3, 3, 2, 2, 2, 2, 2, 4, 4, 4, 4, 4, 4, 1, 1, 1, 1, 1, 1, 5, 5, 5, 5, 5, 5, 3, 3, 3, 3, 3, 3, 4, 4, 4, 4, 4, 4, 3, 2, 2, 2, 2, 2, 2, 2, 2, 2, 2, 2, 3, 3, 3, 3, 3, 3, 1, 1, 1, 1, 1, 1, 4, 4, 3, 2, 2, 1, 2, 1, 1, 1, 1, 1, 5, 4, 4, 3, 3, 2, 2, 1, 1, 1, 1, 1, 3, 2, 2, 1, 1, 1, 4, 4, 4, 4, 4, 4, 4, 3, 3, 3, 2, 2, 3, 2, 2, 2, 2, 2, 3, 2, 2, 1, 1, 1, 4, 4, 4, 3, 3, 3, 5, 5, 5, 5, 5, 5, 5, 4, 3, 2, 2, 1, 3, 3, 3, 3, 3, 3, 2, 2, 2, 2, 2, 2, 2, 2, 2, 2, 2, 2, 1, 1, 1, 1, 1, 1, 3, 3, 3, 3, 3, 3, 5, 3, 3, 3, 2, 1, 4, 4, 4, 4, 4, 4, 1, 1, 1, 1, 1, 1, 5, 4, 4, 3, 2, 2, 1, 1, 1, 1, 1, 1, 5, 3, 3, 2, 1, 1, 2, 2, 2, 2, 1, 1, 4, 3, 2, 2, 2, 1, 1, 1, 1, 1, 1, 1, 4, 4, 4, 3, 3, 3, 5, 4, 4, 3, 3, 2, 3, 3, 3, 2, 1, 1, 5, 4, 4, 4, 4, 4, 4, 3, 2, 2, 1, 1, 4, 4, 4, 4, 4, 4, 4, 4, 4, 3, 3, 2
 |6, 6, 6, 6, 5, 5, 3, 3, 3, 2, 2, 1, 17, 12, 11, 7, 4, 3, 29, 28, 28, 26, 25, 25, 12, 11, 9, 8, 8, 7, 20, 19, 17, 17, 16, 15, 30, 28, 28, 26, 25, 24, 24, 21, 19, 19, 15, 15, 24, 23, 23, 22, 21, 19, 20, 20, 18, 18, 16, 14, 4, 3, 3, 3, 3, 3, 10, 9, 9, 9, 8, 8, 29, 28, 28, 28, 28, 28, 20, 18, 15, 14, 14, 12, 9, 8, 8, 7, 7, 6, 26, 25, 25, 24, 23, 23, 27, 26, 24, 21, 16, 14, 4, 4, 3, 3, 2, 2, 11, 10, 9, 8, 7, 5, 23, 21, 21, 16, 15, 14, 26, 21, 19, 15, 13, 9, 22, 22, 22, 22, 22, 22, 30, 28, 28, 27, 26, 26, 6, 6, 5, 5, 5, 4, 27, 22, 17, 15, 11, 7, 7, 7, 7, 6, 6, 6, 23, 18, 17, 13, 9, 8, 17, 16, 14, 10, 8, 7, 15, 15, 13, 9, 9, 7, 7, 5, 4, 3, 2, 2, 24, 21, 18, 16, 15, 12, 30, 29, 29, 28, 28, 28, 23, 20, 16, 12, 11, 6, 16, 15, 13, 10, 4, 3, 4, 4, 4, 4, 3, 3, 18, 12, 10, 9, 6, 3, 30, 29, 29, 28, 27, 27, 26, 24, 20, 12, 8, 6, 15, 15, 15, 15, 15, 15, 16, 12, 11, 9, 5, 4, 1, 1, 1, 1, 1, 1, 25, 24, 23, 22, 20, 19, 21, 21, 21, 20, 20, 19, 20, 18, 16, 14, 14, 11, 13, 12, 9, 8, 5, 2, 14, 14, 14, 13, 13, 13, 19, 17, 16, 14, 14, 12, 24, 17, 14, 13, 7, 7, 27, 27, 24, 23, 21, 20, 15, 13, 11, 10, 8, 7, 7, 5, 5, 4, 4, 3, 23, 23, 23, 23, 23, 23, 14, 12, 11, 9, 7, 6, 19, 15, 12, 10, 9, 6, 9, 9, 9, 9, 9, 9, 12, 11, 11, 11, 11, 11, 22, 20, 19, 19, 17, 17, 11, 11, 8, 7, 4, 3, 4, 4, 4, 3, 3, 3, 15, 13, 13, 9, 9, 6, 30, 28, 25, 24, 23, 21, 15, 15, 11, 10, 7, 6, 21, 19, 18, 18, 16, 16, 25, 24, 21, 19, 14, 13, 20, 16, 14, 11, 8, 8, 10, 7, 6, 4, 4, 1, 9, 9, 7, 7, 5, 4, 9, 8, 8, 8, 8, 8, 27, 25, 25, 25, 24, 23, 21, 19, 18, 15, 15, 14, 21, 21, 20, 20, 19, 19, 30, 23, 19, 17, 11, 10, 26, 22, 18, 15, 13, 11, 21, 20, 19, 19, 18, 17, 6, 6, 6, 6, 6, 6, 27, 24, 18, 16, 13, 9, 27, 26, 25, 23, 22, 22, 10, 9, 8, 4, 2, 2, 26, 24, 15, 14, 7, 5, 26, 24, 20, 17, 12, 9, 13, 11, 11, 10, 9, 9, 17, 17, 15, 13, 11, 10, 12, 11, 9, 8, 7, 6, 19, 17, 14, 11, 8, 6, 14, 14, 14, 14, 14, 14, 30, 29, 27, 27, 25, 24, 12, 12, 10, 9, 8, 8, 25, 24, 24, 23, 23, 23, 29, 29, 28, 28, 26, 26, 29, 29, 29, 28, 28, 28, 25, 22, 14, 12, 7, 4, 18, 17, 16, 13, 11, 9, 18, 15, 15, 10, 8, 5, 2, 2, 2, 2, 2, 2, 23, 21, 16, 15, 9, 9, 15, 14, 13, 13, 12, 12, 21, 19, 19, 17, 17, 16, 26, 25, 23, 22, 19, 19, 4, 4, 4, 3, 3, 3, 20, 20, 20, 20, 20, 20
 |30, 23, 18, 12, 10, 6, 25, 20, 16, 11, 5, 5, 12, 12, 8, 7, 5, 4, 15, 14, 12, 9, 7, 6, 23, 20, 15, 12, 12, 9, 28, 23, 17, 14, 11, 8, 19, 18, 18, 17, 15, 15, 16, 14, 12, 10, 8, 7, 30, 29, 29, 29, 29, 29, 21, 20, 18, 15, 14, 10, 6, 4, 4, 3, 3, 2, 22, 19, 14, 12, 4, 2, 17, 14, 12, 11, 7, 5, 20, 17, 13, 10, 10, 6, 19, 18, 18, 18, 18, 18, 25, 22, 18, 13, 10, 6, 27, 25, 20, 20, 16, 12, 11, 10, 9, 9, 9, 8, 26, 23, 22, 18, 16, 16, 9, 9, 9, 8, 8, 8, 10, 7, 7, 4, 4, 3, 24, 21, 20, 17, 11, 11, 10, 9, 7, 6, 3, 1, 17, 15, 12, 9, 5, 3, 27, 23, 19, 16, 14, 10, 28, 26, 25, 24, 24, 23, 2, 2, 2, 1, 1, 1, 23, 22, 20, 19, 17, 16, 23, 22, 19, 16, 14, 14, 27, 24, 20, 18, 18, 14, 22, 16, 15, 11, 7, 3, 26, 25, 24, 22, 21, 20, 10, 10, 9, 9, 8, 7, 27, 23, 21, 21, 17, 17, 25, 23, 19, 15, 13, 12, 20, 19, 17, 16, 16, 15, 12, 11, 9, 8, 7, 7, 18, 12, 12, 9, 5, 2, 29, 28, 28, 28, 28, 28, 21, 18, 16, 12, 12, 9, 21, 17, 15, 12, 7, 1, 11, 11, 10, 10, 9, 9, 27, 23, 18, 13, 12, 4, 27, 25, 24, 23, 22, 20, 23, 22, 20, 18, 15, 13, 26, 25, 22, 20, 16, 12, 12, 9, 8, 6, 6, 5, 16, 14, 13, 8, 6, 4, 30, 29, 29, 29, 28, 28, 29, 26, 24, 22, 20, 19, 14, 14, 13, 12, 11, 9, 27, 26, 23, 21, 17, 15, 22, 20, 18, 16, 15, 14, 22, 21, 20, 20, 20, 19, 27, 26, 25, 23, 22, 22, 25, 20, 16, 12, 8, 5, 27, 26, 26, 24, 23, 23, 24, 24, 23, 23, 22, 21, 9, 8, 8, 8, 8, 8, 9, 9, 8, 6, 5, 5, 7, 7, 5, 5, 2, 2, 19, 17, 14, 11, 5, 2, 26, 26, 26, 25, 24, 24, 29, 25, 22, 21, 17, 14, 25, 23, 21, 12, 12, 6, 17, 13, 12, 8, 7, 5, 16, 15, 13, 11, 10, 9, 26, 22, 18, 15, 14, 11, 13, 12, 12, 10, 10, 8, 14, 12, 10, 10, 7, 6, 26, 26, 26, 26, 26, 26, 11, 10, 8, 7, 7, 6, 27, 25, 22, 19, 15, 14, 12, 12, 8, 7, 5, 4, 28, 28, 28, 27, 27, 26, 20, 19, 18, 18, 17, 17, 1, 1, 1, 1, 1, 1, 18, 15, 12, 9, 6, 2, 29, 22, 18, 15, 5, 4, 22, 21, 20, 17, 17, 14, 22, 21, 19, 19, 18, 17, 20, 20, 18, 17, 16, 16, 13, 12, 12, 11, 11, 11, 26, 23, 19, 18, 17, 14, 19, 16, 15, 13, 13, 11, 20, 20, 20, 20, 20, 20, 10, 10, 10, 10, 10, 10, 16, 15, 10, 8, 6, 3, 14, 10, 10, 6, 5, 3, 22, 21, 21, 21, 21, 21, 16, 16, 14, 13, 12, 12, 25, 20, 16, 14, 12, 9, 29, 27, 24, 24, 21, 21, 27, 24, 17, 17, 13, 6, 29, 28, 27, 27, 25, 25, 9, 8, 7, 6, 3, 3, 16, 16, 14, 13, 12, 12, 21, 15, 12, 12, 6, 6, 27, 26, 25, 23, 22, 19, 21, 18, 18, 15, 10, 9
 |29, 28, 27, 26, 24, 23, 19, 18, 18, 17, 17, 17, 20, 20, 16, 13, 11, 5, 14, 13, 12, 11, 10, 8, 13, 9, 9, 6, 3, 1, 26, 22, 20, 18, 18, 16, 7, 5, 4, 3, 2, 1, 20, 19, 18, 17, 17, 16, 20, 18, 16, 11, 6, 5, 8, 6, 6, 6, 5, 4, 25, 24, 19, 18, 16, 13, 14, 14, 13, 11, 10, 9, 16, 16, 13, 9, 6, 3, 14, 12, 10, 8, 7, 4, 8, 8, 6, 6, 5, 4, 13, 13, 13, 12, 11, 11, 16, 15, 14, 14, 14, 13, 21, 20, 20, 19, 19, 19, 21, 20, 19, 18, 17, 16, 14, 14, 13, 13, 11, 11, 23, 17, 17, 11, 6, 6, 20, 19, 18, 18, 17, 16, 6, 6, 5, 5, 4, 4, 26, 24, 19, 16, 12, 12, 16, 13, 12, 10, 9, 7, 25, 18, 17, 11, 10, 3, 17, 17, 17, 17, 17, 17, 30, 30, 30, 30, 30, 30, 19, 18, 17, 16, 15, 13, 14, 14, 12, 10, 10, 8, 20, 19, 18, 16, 15, 14, 18, 18, 13, 11, 7, 5, 16, 16, 16, 15, 15, 15, 27, 21, 18, 16, 10, 5, 22, 20, 16, 15, 14, 10, 5, 4, 4, 4, 4, 4, 17, 17, 13, 11, 11, 8, 22, 22, 22, 22, 22, 22, 28, 27, 26, 26, 25, 25, 4, 3, 3, 3, 2, 1, 10, 8, 6, 6, 5, 3, 26, 21, 17, 17, 14, 10, 11, 10, 10, 9, 9, 9, 25, 24, 23, 22, 22, 21, 28, 25, 23, 21, 19, 17, 22, 19, 18, 13, 9, 9, 27, 27, 26, 24, 23, 23, 25, 25, 21, 17, 15, 12, 20, 18, 17, 16, 14, 13, 26, 23, 22, 20, 19, 19, 26, 25, 25, 24, 24, 23, 29, 28, 27, 27, 26, 26, 22, 20, 19, 17, 15, 15, 22, 17, 16, 13, 10, 5, 20, 15, 15, 10, 7, 5, 12, 10, 9, 7, 6, 4, 3, 3, 2, 2, 1, 1, 16, 13, 11, 11, 8, 6, 24, 21, 18, 16, 13, 10, 18, 16, 15, 13, 13, 12, 12, 10, 8, 5, 3, 1, 24, 24, 24, 23, 22, 22, 23, 18, 17, 14, 9, 6, 12, 11, 10, 10, 9, 9, 20, 20, 18, 17, 17, 16, 23, 22, 20, 19, 18, 17, 19, 18, 14, 11, 7, 3, 11, 11, 10, 9, 7, 6, 21, 17, 16, 14, 14, 12, 18, 17, 17, 16, 16, 16, 26, 20, 16, 14, 6, 3, 9, 6, 6, 5, 4, 2, 18, 15, 14, 12, 9, 8, 13, 10, 9, 8, 8, 7, 26, 19, 17, 13, 7, 5, 13, 12, 11, 9, 8, 8, 14, 13, 12, 10, 7, 7, 23, 18, 18, 14, 11, 10, 28, 23, 23, 21, 18, 14, 28, 25, 25, 23, 22, 19, 8, 8, 8, 8, 8, 8, 23, 21, 19, 18, 17, 13, 15, 13, 11, 8, 7, 4, 22, 21, 17, 14, 8, 5, 20, 16, 15, 12, 10, 7, 28, 27, 27, 27, 27, 27, 15, 13, 13, 12, 11, 11, 15, 15, 15, 14, 14, 13, 21, 18, 15, 15, 10, 7, 30, 26, 26, 22, 20, 19, 20, 15, 13, 12, 9, 6, 22, 19, 15, 13, 8, 7, 18, 13, 10, 8, 8, 3, 16, 13, 13, 8, 6, 4, 23, 18, 17, 12, 11, 8, 27, 22, 19, 18, 16, 12, 19, 17, 16, 16, 14, 14, 27, 24, 18, 11, 8, 3, 9, 9, 8, 8, 7, 7, 30, 28, 27, 26, 25, 24
 |9, 9, 9, 9, 9, 9, 14, 11, 11, 8, 6, 3, 4, 4, 4, 4, 3, 3, 15, 13, 12, 8, 6, 5, 27, 22, 17, 11, 6, 4, 10, 9, 9, 7, 4, 4, 30, 24, 21, 19, 17, 15, 16, 15, 14, 11, 10, 10, 16, 14, 13, 8, 6, 4, 13, 12, 12, 11, 9, 9, 27, 25, 24, 23, 22, 21, 13, 12, 10, 8, 6, 6, 28, 22, 17, 11, 9, 5, 29, 22, 19, 10, 6, 3, 20, 20, 20, 19, 18, 18, 27, 25, 24, 23, 23, 22, 3, 3, 3, 3, 3, 3, 11, 10, 10, 9, 9, 8, 19, 19, 14, 11, 7, 4, 27, 23, 20, 16, 12, 6, 27, 19, 17, 12, 10, 5, 15, 14, 14, 13, 12, 12, 19, 19, 19, 18, 18, 18, 30, 30, 30, 30, 30, 30, 12, 10, 9, 6, 5, 4, 9, 9, 9, 9, 9, 9, 22, 18, 18, 16, 15, 13, 15, 13, 13, 10, 9, 8, 25, 25, 24, 23, 21, 21, 26, 22, 19, 13, 8, 5, 30, 27, 26, 26, 24, 23, 3, 3, 3, 3, 3, 3, 1, 1, 1, 1, 1, 1, 26, 26, 25, 23, 23, 22, 25, 20, 15, 13, 8, 5, 26, 22, 16, 15, 10, 6, 21, 20, 20, 20, 19, 19, 20, 20, 20, 19, 18, 18, 10, 8, 8, 7, 5, 4, 21, 21, 21, 21, 21, 21, 24, 22, 20, 17, 14, 12, 23, 23, 21, 21, 20, 18, 13, 12, 12, 11, 10, 8, 29, 27, 26, 24, 24, 23, 22, 22, 22, 22, 22, 22, 24, 24, 24, 24, 24, 24, 19, 16, 14, 11, 6, 6, 22, 18, 18, 16, 12, 11, 11, 11, 8, 5, 4, 3, 17, 13, 13, 10, 9, 7, 20, 20, 19, 19, 18, 18, 20, 19, 15, 14, 11, 9, 18, 15, 15, 13, 9, 7, 27, 24, 21, 20, 14, 14, 17, 17, 15, 15, 14, 13, 6, 6, 6, 5, 5, 5, 24, 23, 20, 17, 11, 8, 10, 8, 8, 8, 7, 6, 15, 14, 14, 12, 11, 10, 26, 25, 23, 20, 18, 18, 28, 27, 27, 26, 25, 24, 22, 20, 14, 9, 8, 1, 17, 16, 16, 15, 15, 14, 21, 15, 14, 9, 7, 4, 12, 10, 9, 8, 4, 4, 27, 23, 16, 15, 7, 7, 25, 21, 16, 14, 9, 7, 28, 26, 23, 20, 18, 15, 13, 13, 12, 10, 10, 9, 8, 8, 8, 8, 8, 8, 18, 18, 16, 16, 15, 14, 20, 17, 16, 14, 13, 11, 25, 22, 16, 11, 8, 2, 20, 18, 14, 13, 9, 9, 21, 20, 20, 18, 17, 16, 20, 17, 15, 12, 11, 9, 6, 5, 4, 3, 3, 1, 10, 9, 9, 9, 9, 9, 9, 8, 6, 5, 4, 2, 27, 23, 18, 15, 10, 8, 28, 20, 20, 14, 12, 7, 18, 17, 15, 10, 10, 6, 17, 16, 16, 16, 16, 16, 25, 24, 24, 23, 23, 23, 26, 19, 18, 11, 9, 7, 21, 18, 16, 15, 12, 11, 23, 22, 22, 21, 19, 18, 13, 13, 11, 9, 9, 6, 27, 22, 20, 17, 13, 11, 26, 21, 17, 13, 7, 7, 25, 18, 15, 15, 10, 6, 10, 9, 9, 8, 8, 8, 28, 27, 22, 19, 17, 15, 13, 13, 13, 13, 13, 13, 27, 26, 25, 25, 24, 24, 21, 19, 18, 14, 9, 8, 28, 27, 25, 22, 21, 19, 16, 14, 14, 14, 13, 12, 7, 6, 5, 5, 4, 4, 4, 4, 4, 4, 3, 3|];